# HF/6-31G(d)

title

0 1
  C    10.58300018    15.66199970    17.44899940
  H    10.76099968    16.22100067    16.48900032
  H     9.84799957    16.25000000    17.99600029
  O    11.84200001    15.37500000    18.01399994
  C    12.57900047    16.51499939    18.41099930
  H    12.73999977    17.28700066    17.68400002
  H    13.55000019    16.03400040    18.56999969
  H    12.10599995    16.95999908    19.32200050
  C    10.02200031    14.35099983    17.06200027
  H    10.10400009    13.69600010    17.93300056
  H    10.56000042    13.85799980    16.32099915
  O     8.68500042    14.51799965    16.58799934
  C     8.05599976    13.22000027    16.43199921
  H     7.06099987    13.30700016    16.05400085
  H     7.92700005    12.69200039    17.36199951
  H     8.51399994    12.56700039    15.66800022
  C    15.52148533    16.43881035    16.31345749
  H    16.24248505    17.19481087    16.37945747
  H    14.91648388    16.34481049    17.19445610
  O    16.06048584    15.21081066    15.92645645
  C    16.82248497    14.68981075    16.96545601
  H    17.11748505    13.76381016    16.52345657
  H    16.22548485    14.43281078    17.83945656
  H    17.67848587    15.37281036    17.28945541
  C    14.47048473    16.75481033    15.24545574
  H    13.61248493    16.19881058    15.49845600
  H    14.86648464    16.60581207    14.26545620
  O    13.98648453    18.04681206    15.46645641
  C    13.13548470    18.49881172    14.38245583
  H    12.91348457    19.55881119    14.66345596
  H    12.18148518    17.97781181    14.53345585
  H    13.56348515    18.29781151    13.36745644

