# HF/6-31G(d)

title

0 1
  C    10.58300018    15.66199970    17.44899940
  H    10.76099968    16.22100067    16.48900032
  H     9.84799957    16.25000000    17.99600029
  O    11.84200001    15.37500000    18.01399994
  C    12.57900047    16.51499939    18.41099930
  H    12.73999977    17.28700066    17.68400002
  H    13.55000019    16.03400040    18.56999969
  H    12.10599995    16.95999908    19.32200050
  C    10.02200031    14.35099983    17.06200027
  H    10.10400009    13.69600010    17.93300056
  H    10.56000042    13.85799980    16.32099915
  O     8.68500042    14.51799965    16.58799934
  C     8.05599976    13.22000027    16.43199921
  H     7.06099987    13.30700016    16.05400085
  H     7.92700005    12.69200039    17.36199951
  H     8.51399994    12.56700039    15.66800022
  C    16.10447502    16.64599800    16.11421776
  H    16.82547379    17.40199852    16.18021774
  H    15.49947357    16.55199814    16.99521828
  O    16.64347458    15.41799927    15.72721767
  C    17.40547371    14.89699936    16.76621819
  H    17.70047379    13.97099876    16.32421875
  H    16.80847359    14.63999939    17.64021873
  H    18.26147461    15.57999897    17.09021759
  C    15.05347443    16.96199799    15.04621696
  H    14.19547462    16.40599823    15.29921722
  H    15.44947433    16.81299973    14.06621742
  O    14.56947422    18.25399971    15.26721764
  C    13.71847439    18.70599937    14.18321705
  H    13.49647427    19.76599884    14.46421719
  H    12.76447487    18.18499947    14.33421707
  H    14.14647484    18.50499916    13.16821766

