# HF/6-31G(d)

title

0 1
  C    10.58300018    15.66199970    17.44899940
  H    10.76099968    16.22100067    16.48900032
  H     9.84799957    16.25000000    17.99600029
  O    11.84200001    15.37500000    18.01399994
  C    12.57900047    16.51499939    18.41099930
  H    12.73999977    17.28700066    17.68400002
  H    13.55000019    16.03400040    18.56999969
  H    12.10599995    16.95999908    19.32200050
  C    10.02200031    14.35099983    17.06200027
  H    10.10400009    13.69600010    17.93300056
  H    10.56000042    13.85799980    16.32099915
  O     8.68500042    14.51799965    16.58799934
  C     8.05599976    13.22000027    16.43199921
  H     7.06099987    13.30700016    16.05400085
  H     7.92700005    12.69200039    17.36199951
  H     8.51399994    12.56700039    15.66800022
  C    17.85344315    17.26756287    15.51650047
  H    18.57444191    18.02356339    15.58250046
  H    17.24844170    17.17356300    16.39750099
  O    18.39244270    16.03956413    15.12950039
  C    19.15444183    15.51856422    16.16850090
  H    19.44944191    14.59256363    15.72650051
  H    18.55744171    15.26156425    17.04250145
  H    20.01044273    16.20156479    16.49250031
  C    16.80244255    17.58356285    14.44849968
  H    15.94444275    17.02756310    14.70149994
  H    17.19844246    17.43456459    13.46850014
  O    16.31844330    18.87556458    14.66950035
  C    15.46744251    19.32756424    13.58549976
  H    15.24544239    20.38756371    13.86649990
  H    14.51344299    18.80656433    13.73649979
  H    15.89544296    19.12656403    12.57050037

